(set-option :print-success false)
(set-logic QF_UF)
(declare-sort x67 0)
(declare-fun x116 () x67)
(declare-fun x98 () x67)
(declare-fun x44 () x67)
(declare-fun x27 () x67)
(declare-fun x14 () x67)
(declare-fun x83 () x67)
(declare-fun x21 () x67)
(declare-fun x134 () x67)
(declare-fun x85 () x67)
(declare-fun x43 () x67)
(declare-fun x9 () x67)
(declare-fun x19 () x67)
(declare-fun x113 () x67)
(declare-fun x59 () x67)
(declare-fun x93 () x67)
(declare-fun x11 () x67)
(declare-fun x132 () x67)
(declare-fun x79 () x67)
(declare-fun x102 () x67)
(declare-fun x70 () x67)
(declare-fun x71 () x67)
(declare-fun x127 () x67)
(declare-fun x72 () x67)
(declare-fun x56 () x67)
(declare-fun x1 () x67)
(declare-fun x74 () x67)
(declare-fun x82 () x67)
(declare-fun x122 () x67)
(declare-fun x48 () x67)
(declare-fun x89 () x67)
(declare-fun x35 () x67)
(declare-fun x90 () x67)
(declare-fun x26 () x67)
(declare-fun x117 () x67)
(declare-fun x66 () x67)
(declare-fun x13 () x67)
(declare-fun x65 () x67)
(declare-fun x4 () x67)
(declare-fun x121 () x67)
(declare-fun x31 () x67)
(declare-fun x2 () x67)
(declare-fun x95 () x67)
(declare-fun x73 () x67)
(declare-fun x96 () x67)
(declare-fun x84 () x67)
(declare-fun x40 () x67)
(declare-fun x108 () x67)
(declare-fun x86 () x67)
(declare-fun x135 () x67)
(declare-fun x16 () x67)
(declare-fun x129 () x67)
(declare-fun x110 () x67)
(declare-fun x12 () x67)
(declare-fun x126 () x67)
(declare-fun x119 () x67)
(declare-fun x57 () x67)
(declare-fun x60 () x67)
(declare-fun x42 () x67)
(declare-fun x30 () x67)
(declare-fun x53 () x67)
(declare-fun x131 () x67)
(declare-fun x25 () x67)
(declare-fun x52 () x67)
(declare-fun x6 () x67)
(declare-fun x123 () x67)
(declare-fun x15 () x67)
(declare-fun x46 () x67)
(declare-fun x130 () x67)
(declare-fun x50 () x67)
(declare-fun x92 () x67)
(declare-fun x77 () x67)
(declare-fun x81 () x67)
(declare-fun x29 () x67)
(declare-fun x101 () x67)
(declare-fun x22 () x67)
(declare-fun x63 () x67)
(declare-fun x104 () x67)
(declare-fun x17 () x67)
(declare-fun x106 () x67)
(declare-fun x75 () x67)
(declare-fun x136 () x67)
(declare-fun x5 () x67)
(declare-fun x105 () x67)
(declare-fun x45 () x67)
(declare-fun x78 () x67)
(declare-fun x125 () x67)
(declare-fun x24 () x67)
(declare-fun x23 () x67)
(declare-fun x39 () x67)
(declare-fun x33 () x67)
(declare-fun x18 () x67)
(declare-fun x111 () x67)
(declare-fun x8 () x67)
(declare-fun x112 () x67)
(declare-fun x100 () x67)
(declare-fun x103 () x67)
(declare-fun x91 () x67)
(declare-fun x76 () x67)
(declare-fun x28 () x67)
(declare-fun x38 () x67)
(declare-fun x55 () x67)
(declare-fun x97 () x67)
(declare-fun x58 () x67)
(declare-fun x80 () x67)
(declare-fun x69 () x67)
(declare-fun x32 () x67)
(declare-fun x68 () x67)
(declare-fun x51 () x67)
(declare-fun x61 () x67)
(declare-fun x54 () x67)
(declare-fun x3 () x67)
(declare-fun x120 () x67)
(declare-fun x10 () x67)
(declare-fun x36 () x67)
(declare-fun x128 () x67)
(declare-fun x20 () x67)
(declare-fun x49 () x67)
(declare-fun x37 () x67)
(declare-fun x87 () x67)
(declare-fun x99 () x67)
(declare-fun x133 () x67)
(declare-fun x41 () x67)
(declare-fun x64 () x67)
(declare-fun x109 () x67)
(declare-fun x62 () x67)
(declare-fun x114 () x67)
(declare-fun x34 () x67)
(declare-fun x124 () x67)
(declare-fun x118 () x67)
(declare-fun x47 () x67)
(declare-fun x88 () x67)
(declare-fun x94 () x67)
(declare-fun x7 () x67)
(declare-fun x115 () x67)
(declare-fun x107 () x67)
(assert (and (or (and (= x132 x20) (= x39 x20)) (and (= x132 x38) (= x38 x39))) (or (and (= x131 x100) (= x100 x58)) (and (= x22 x58) (= x131 x22))) (not (= x25 x99)) (or (and (= x1 x43) (= x26 x1)) (and (= x43 x40) (= x40 x26))) (or (and (= x81 x89) (= x89 x105)) (and (= x105 x70) (= x70 x81))) (or (and (= x53 x116) (= x116 x46)) (and (= x128 x46) (= x53 x128))) (or (and (= x118 x134) (= x118 x56)) (and (= x31 x134) (= x31 x56))) (or (and (= x28 x69) (= x101 x28)) (and (= x80 x101) (= x69 x80))) (or (and (= x53 x36) (= x36 x13)) (and (= x84 x53) (= x84 x13))) (or (and (= x133 x14) (= x27 x133)) (and (= x32 x14) (= x27 x32))) (or (and (= x106 x75) (= x47 x75)) (and (= x45 x47) (= x45 x106))) (or (and (= x96 x90) (= x21 x96)) (and (= x90 x117) (= x21 x117))) (or (and (= x39 x74) (= x93 x74)) (and (= x93 x102) (= x102 x39))) (or (and (= x77 x66) (= x61 x77)) (and (= x66 x63) (= x61 x63))) (or (and (= x136 x12) (= x136 x3)) (and (= x123 x3) (= x123 x12))) (or (and (= x69 x113) (= x113 x37)) (and (= x37 x135) (= x135 x69))) (or (and (= x50 x27) (= x92 x50)) (and (= x11 x27) (= x11 x92))) (or (and (= x91 x101) (= x129 x91)) (and (= x101 x111) (= x129 x111))) (or (and (= x127 x125) (= x65 x125)) (and (= x127 x51) (= x51 x65))) (or (and (= x109 x87) (= x132 x109)) (and (= x44 x87) (= x132 x44))) (or (and (= x62 x54) (= x81 x54)) (and (= x72 x62) (= x81 x72))) (or (and (= x15 x14) (= x129 x15)) (and (= x14 x86) (= x129 x86))) (or (and (= x17 x97) (= x17 x26)) (and (= x2 x26) (= x2 x97))) (or (and (= x79 x105) (= x30 x79)) (and (= x30 x76) (= x105 x76))) (or (and (= x87 x29) (= x130 x29)) (and (= x49 x130) (= x49 x87))) (or (and (= x119 x60) (= x90 x60)) (and (= x119 x5) (= x90 x5))) (or (and (= x55 x93) (= x55 x47)) (and (= x47 x108) (= x108 x93))) (or (and (= x57 x61) (= x57 x114)) (and (= x24 x61) (= x24 x114))) (or (and (= x7 x119) (= x3 x7)) (and (= x19 x3) (= x19 x119))) (or (and (= x68 x30) (= x9 x68)) (and (= x30 x73) (= x73 x9))) (or (and (= x42 x107) (= x13 x107)) (and (= x13 x115) (= x115 x42))) (or (and (= x95 x85) (= x85 x43)) (and (= x83 x95) (= x83 x43))) (or (and (= x65 x6) (= x6 x130)) (and (= x120 x65) (= x130 x120))) (or (and (= x124 x92) (= x124 x95)) (and (= x92 x48) (= x48 x95))) (or (and (= x110 x10) (= x110 x56)) (and (= x122 x56) (= x122 x10))) (or (and (= x112 x99) (= x94 x112)) (and (= x94 x35) (= x35 x99))) (or (and (= x64 x42) (= x64 x106)) (and (= x106 x71) (= x71 x42))) (or (and (= x104 x131) (= x10 x104)) (and (= x131 x59) (= x59 x10))) (or (and (= x58 x41) (= x127 x41)) (and (= x58 x18) (= x18 x127))) (or (and (= x23 x37) (= x25 x23)) (and (= x37 x4) (= x25 x4))) (or (and (= x98 x66) (= x9 x98)) (and (= x9 x82) (= x82 x66))) (or (and (= x97 x34) (= x21 x34)) (and (= x21 x8) (= x8 x97))) (or (and (= x78 x46) (= x94 x78)) (and (= x46 x126) (= x94 x126))) (or (and (= x121 x114) (= x134 x121)) (and (= x88 x134) (= x88 x114))) (or (and (= x33 x62) (= x12 x33)) (and (= x16 x62) (= x16 x12)))))
(check-sat)
(exit)
